Route 1: 26 28 27 18 6 37 2 13 21
Route 2: 1 50 12 40 10 31 7 48
Route 3: 33 20 30 9 35 34 3
Route 4: 42 14 44 38 16 17 5
Route 5: 45 46 8 47 19 32
Route 6: 39 23 22 4 25
Route 7: 43 15 41 24 29
Route 8: 36 11 49
Vehicles: 8
Distance: 970.73
